peakDumbCharging = 25900; 
Machine = anon_enum(16); 
machineSpeed = [3700,3700,3700,3700,3700,3700,3700,3700,3700,3700,3700,3700,3700,3700,3700,3700]; 
machineLoad = [3700,3700,3700,3700,3700,3700,3700,3700,3700,3700,3700,3700,3700,3700,3700,3700]; 
Car = anon_enum(33); 
demandCar = [10280,5440,13760,11480,6720,10560,8320,4400,12400,4280,8960,8560,5400,4240,6200,5800,13160,3080,2680,13840,1960,22520,1560,8920,5480,8200,680,9720,28280,7320,11160,15080,6080]; 
arrivalCar = [66,64,64,62,61,61,61,59,58,58,57,56,55,54,54,53,52,51,51,51,48,48,47,46,46,46,45,43,42,42,41,36,33]; 
departureCar = [74,69,70,69,64,65,64,67,66,60,63,59,58,58,57,57,58,54,53,62,50,60,48,51,49,51,47,50,57,45,47,45,37]; 
